Solving original (integer) problem with strategy gdp.binary_multiplication...
--- Job model.gms Start 02/19/26 01:20:34 52.2.0 d8e408be LEX-LEG x86 64bit/Linux
--- Applying:
    /package/gams/52.2/gmsprmun.txt
--- GAMS Parameters defined
    Input /local/scratch/a/sgusev/repos/k_means/data/gams_gurobi_gdp.binary_multiplication/no_mode/2026-02-19_01-20-33/original/model.gms
    Output /local/scratch/a/sgusev/repos/k_means/data/gams_gurobi_gdp.binary_multiplication/no_mode/2026-02-19_01-20-33/original/output.lst
    ScrDir /local/scratch/a/sgusev/repos/k_means/data/gams_gurobi_gdp.binary_multiplication/no_mode/2026-02-19_01-20-33/original/225a/
    SysDir /package/gams/52.2/
    CurDir /local/scratch/a/sgusev/repos/k_means/data/gams_gurobi_gdp.binary_multiplication/no_mode/2026-02-19_01-20-33/original/
    LogOption 3
    AppendLog 1
Licensee: David Bernal / SECQUOIA Research Group         G251008+0003Ac-GEN
          Purdue University, Davidson School of Chemical EngineeringDCE4838
          225a/gamslice.dat
          5a82958a-fbca-4a23
          node:66820903 mem:995 cores:48 ipport:33269 v:2                  
          Evaluation license: Not for commercial or production use
          The time-limited license stops working on : Jun 30, 2027
System information: 48 physical cores and 995 Gb physical memory detected
GAMS 52.2.0   Copyright (C) 1987-2025 GAMS Development. All rights reserved
--- Starting compilation
--- model.gms(304) 2 Mb
--- $echo File /local/scratch/a/sgusev/repos/k_means/data/gams_gurobi_gdp.binary_multiplication/no_mode/2026-02-19_01-20-33/original/gurobi.opt
--- model.gms(521) 2 Mb
--- Starting execution: elapsed 0:00:00.006
--- model.gms(313) 3 Mb
--- Generating MINLP model GAMS_MODEL
--- model.gms(317) 5 Mb
---   65 rows  86 columns  419 non-zeroes
---   1,150 nl-code  350 nl-non-zeroes
---   50 discrete-columns
--- Range statistics (absolute non-zero finite values)
--- RHS       [min, max] : [ 1.000E+00, 1.000E+00] - Zero values observed as well
--- Bound     [min, max] : [ 1.000E+00, 1.000E+02] - Zero values observed as well
--- Matrix    [min, max] : [ 9.720E-01, 2.144E+00] - Zero values observed as well
--- model.gms(317) 3 Mb
--- Executing GUROBI (Solvelink=5): elapsed 0:00:00.009
Reading parameter(s) from "/local/scratch/a/sgusev/repos/k_means/data/gams_gurobi_gdp.binary_multiplication/no_mode/2026-02-19_01-20-33/original/gurobi.opt"
>>  NonConvex 2
>>  Threads 1
>>  MIPGap 1e-06
>>  MIPGapAbs 1e-10
>>  FeasibilityTol 1e-06
>>  OptimalityTol 1e-06
>>  IntFeasTol 1e-05
Finished reading from "/local/scratch/a/sgusev/repos/k_means/data/gams_gurobi_gdp.binary_multiplication/no_mode/2026-02-19_01-20-33/original/gurobi.opt"

... GRB_LICENSE_FILE = /local/scratch/a/sgusev/gurobi.lic

    Gurobi           52.2.0 d8e408be Dec 8, 2025           LEG x86 64bit/Linux    

... GAMS/Gurobi Link license.
... GMO Q Extraction (ThreePass): 0.00s

    Gurobi Optimizer version 13.0.0 build v13.0.0rc1 (linux64 - "Oracle Linux Server 9.7")
    
    CPU model: AMD EPYC 7643 48-Core Processor, instruction set [SSE2|AVX|AVX2]
    Thread count: 48 physical cores, 96 logical processors, using up to 1 threads
    
    Non-default parameters:
    TimeLimit  300
    MIPGap  1e-06
    LogToConsole  0
    NonConvex  2
    Threads  1
    
    Optimize a model with 64 rows, 135 columns and 108 nonzeros (Min)
    Model fingerprint: 0x793f9e25
    Model has 10 linear objective coefficients
    Model has 50 general nonlinear constraints (300 nonlinear terms)
    Variable types: 85 continuous, 50 integer (0 binary)
    Coefficient statistics:
      Matrix range     [1e+00, 1e+00]
      Objective range  [1e+00, 1e+00]
      Bounds range     [1e+00, 1e+02]
      RHS range        [1e+00, 1e+00]
      NLCon coe range  [3e-02, 1e+00]
    Presolve model has 50 nlconstr
    Added 550 variables to disaggregate expressions
    Presolve removed 50 rows and 0 columns
    Presolve time: 0.00s
    Presolved: 1264 rows, 736 columns, 2908 nonzeros
    Presolved model has 250 bilinear constraint(s)
    
    Solving non-convex MIQCP to global optimality
    
    Variable types: 686 continuous, 50 integer (50 binary)
    Found heuristic solution: objective 13.7425627
    
    Root relaxation: objective 0.000000e+00, 67 iterations, 0.00 seconds (0.00 work units)
    
        Nodes    |    Current Node    |     Objective Bounds      |     Work
     Expl Unexpl |  Obj  Depth IntInf | Incumbent    BestBd   Gap | It/Node Time
    
         0     0    0.00000    0  250   13.74256    0.00000   100%     -    0s
    H    0     0                      13.5632136    0.00000   100%     -    0s
         0     0    0.00000    0  269   13.56321    0.00000   100%     -    0s
         0     0    0.00000    0  271   13.56321    0.00000   100%     -    0s
         0     0    0.00000    0  268   13.56321    0.00000   100%     -    0s
         0     0    0.00000    0  268   13.56321    0.00000   100%     -    0s
         0     0    0.00000    0  266   13.56321    0.00000   100%     -    0s
         0     0    0.00000    0  264   13.56321    0.00000   100%     -    0s
         0     0    0.00000    0  264   13.56321    0.00000   100%     -    0s
         0     0    0.00000    0  257   13.56321    0.00000   100%     -    0s
    H    0     0                      11.2381596    0.00000   100%     -    0s
    H    0     0                       9.3237589    0.00000   100%     -    0s
         0     2    0.00000    0  257    9.32376    0.00000   100%     -    0s
    H    3     3                       9.3064284    0.00000   100%  23.3    0s
    H    3     3                       9.3063781    0.00000   100%  23.3    0s
    H    4     4                       9.0982720    0.00000   100%  24.5    0s
    H    8     8                       8.8183929    0.00000   100%  16.2    0s
    H    8     8                       8.2430515    0.00000   100%  16.2    0s
    H   18    18                       8.1673988    0.00000   100%  17.8    0s
    H   18    18                       8.1673714    0.00000   100%  17.8    0s
    H   18    18                       8.1672655    0.00000   100%  17.8    0s
    H   18    18                       8.1672605    0.00000   100%  17.8    0s
    H   18    18                       8.1672605    0.00000   100%  17.8    0s
    H   19    19                       7.7786462    0.00000   100%  17.2    0s
    H   35    35                       6.2567180    0.00000   100%  14.6    0s
    H   35    35                       5.3373105    0.00000   100%  14.6    0s
    H   37    35                       5.3112845    0.00000   100%  14.3    0s
    H   37    35                       5.3008962    0.00000   100%  14.3    0s
    H   37    35                       5.3002974    0.00000   100%  14.3    0s
    H   41    37                       5.2754326    0.00000   100%  15.4    0s
    H   41    37                       5.2371344    0.00000   100%  15.4    0s
    H   41    37                       5.0938975    0.00000   100%  15.4    0s
    H   43    39                       5.0393444    0.00000   100%  15.1    0s
    H   43    39                       5.0392625    0.00000   100%  15.1    0s
    H   43    39                       5.0390612    0.00000   100%  15.1    0s
    H   43    39                       5.0363513    0.00000   100%  15.1    0s
    H   43    39                       5.0360942    0.00000   100%  15.1    0s
    H   43    39                       5.0360908    0.00000   100%  15.1    0s
    H   74    66                       4.6969348    0.00000   100%  11.4    0s
    H   74    66                       4.6885652    0.00000   100%  11.4    0s
    H   95    83                       4.6884378    0.00000   100%  11.0    0s
    H   95    83                       4.6884210    0.00000   100%  11.0    0s
    H  123   107                       4.6337105    0.00000   100%  10.0    0s
    H  158   138                       4.5249244    0.00000   100%  10.6    0s
    H  158   138                       4.5235308    0.00000   100%  10.6    0s
    H  158   138                       4.5229745    0.00000   100%  10.6    0s
    H  199   163                       4.5041832    0.00000   100%  12.7    0s
    H  199   163                       4.5041684    0.00000   100%  12.7    0s
    H  199   163                       4.5041375    0.00000   100%  12.7    0s
    H  210   164                       4.5034767    0.00000   100%  13.7    0s
    H  243   197                       4.5034763    0.00000   100%  14.5    0s
    H  267   203                       4.4269552    0.00000   100%  14.6    0s
    H  267   201                       4.3942239    0.00000   100%  14.6    0s
    H  267   196                       4.3817095    0.00000   100%  14.6    0s
    H  267   192                       4.3780423    0.00000   100%  14.6    0s
    H  267   192                       4.3776378    0.00000   100%  14.6    0s
    H  273   198                       4.2647238    0.00000   100%  15.1    0s
    H  321   222                       4.2470571    0.00000   100%  15.4    0s
    H  321   222                       4.2412103    0.00000   100%  15.4    0s
    H  321   222                       4.2401356    0.00000   100%  15.4    0s
    H  359   244                       4.2379953    0.00000   100%  15.1    1s
    H  429   284                       4.2379746    0.00000   100%  14.9    1s
    H  471   306                       4.2379734    0.00000   100%  14.5    1s
    H  640   394                       3.7907730    0.00000   100%  15.0    1s
    H  662   388                       3.7907728    0.00000   100%  21.5    1s
    H  665   370                       3.7907723    0.00000   100%  21.7    1s
    H  665   351                       3.7907720    0.00000   100%  21.7    1s
    H  667   335                       3.7404602    0.00000   100%  21.9    2s
    H  669   320                       3.7404598    0.00000   100%  21.9    2s
    H  670   304                       3.3985777    0.00000   100%  21.8    2s
    H  679   293                       3.3971202    0.00000   100%  22.1    2s
    H  679   278                       3.3824924    0.00000   100%  22.1    2s
    H  679   264                       3.3789105    0.00000   100%  22.1    2s
    H  821   321                       3.3789091    0.00000   100%  21.4    2s
    H  877   330                       3.3789051    0.00000   100%  21.6    2s
    H 1049   373                       3.3787822    0.00000   100%  20.5    2s
    H 1067   374                       3.3784705    0.00000   100%  20.8    2s
    H 1067   363                       3.3784654    0.00000   100%  20.8    2s
    H 1321   461                       3.3103466    0.00000   100%  19.9    3s
    H 1370   510                       3.3102832    0.00000   100%  19.4    3s
    H 1445   548                       3.3102825    0.00000   100%  19.3    3s
    H 1601   635                       3.3054162    0.00000   100%  19.7    3s
    H 1601   634                       3.2764301    0.00000   100%  19.7    3s
    H 1611   632                       3.2729223    0.00000   100%  19.6    3s
    H 1611   632                       3.2720453    0.00000   100%  19.6    3s
    H 1698   677                       3.2711441    0.00000   100%  19.4    3s
    H 1769   720                       3.2705221    0.00000   100%  19.6    3s
    H 1769   720                       3.2703900    0.00000   100%  19.6    3s
    H 1769   720                       3.2703785    0.00000   100%  19.6    3s
    H 1769   720                       3.2703658    0.00000   100%  19.6    3s
    H 1823   746                       3.2701705    0.00000   100%  19.6    3s
    H 2068   832                       3.2698782    0.00000   100%  19.5    4s
    H 2134   862                       3.2698776    0.00000   100%  19.5    4s
    H 2171   872                       3.2698474    0.00000   100%  19.6    4s
    H 2171   872                       3.2698469    0.00000   100%  19.6    4s
    H 2224   893                       3.2698456    0.00000   100%  19.6    4s
    H 2423   971                       3.2698448    0.00000   100%  19.3    4s
    H 2533  1003                       3.2697761    0.00000   100%  19.3    4s
      2541  1005    1.80974   25  245    3.26978    0.00000   100%  19.3    5s
    H 2693  1070                       3.2697761    0.00000   100%  19.2    5s
    H 2945  1169                       3.2510674    0.00000   100%  19.4    5s
    H 3117  1231                       3.2510663    0.00000   100%  19.6    5s
    H 3211  1290                       3.2510613    0.00000   100%  19.6    5s
    H 4211  1862                       3.2335515    0.00000   100%  18.3    7s
    H 4213  1862                       3.2333062    0.00000   100%  18.3    7s
    H 4213  1862                       3.2331146    0.00000   100%  18.3    7s
    H 4223  1865                       3.2330893    0.00000   100%  18.3    7s
    H 4224  1866                       3.2330281    0.00000   100%  18.3    7s
    H 4224  1866                       3.2330240    0.00000   100%  18.3    7s
    H 4225  1867                       3.2325833    0.00000   100%  18.3    7s
    H 4225  1867                       3.2325728    0.00000   100%  18.3    7s
    H 4240  1874                       3.2324752    0.00000   100%  18.3    7s
    H 4247  1879                       3.2322437    0.00000   100%  18.4    7s
    H 4247  1877                       3.2320496    0.00000   100%  18.4    7s
    H 4247  1877                       3.2320472    0.00000   100%  18.4    7s
    H 4278  1885                       3.2320333    0.00000   100%  18.5    8s
    H 4312  1903                       3.2319106    0.00000   100%  18.6    8s
    H 4383  1923                       3.2318708    0.00000   100%  18.8    8s
    H 4383  1923                       3.2318536    0.00000   100%  18.8    8s
    H 4383  1923                       3.2318494    0.00000   100%  18.8    8s
    H 4397  1925                       3.2318493    0.00000   100%  18.8    8s
    H 4397  1925                       3.2313922    0.00000   100%  18.8    8s
    H 4433  1929                       3.2313913    0.00000   100%  18.9    8s
    H 4484  1950                       3.2313789    0.00000   100%  18.9    8s
    H 4484  1950                       3.2313614    0.00000   100%  18.9    8s
    H 4553  1973                       3.2311844    0.00000   100%  19.0    8s
    H 4616  1994                       3.2311837    0.00000   100%  19.0    8s
    H 4669  2016                       3.2309025    0.00000   100%  18.9    8s
    H 4686  2033                       3.2309018    0.00000   100%  18.9    8s
    H 4725  2054                       3.2308609    0.00000   100%  18.9    8s
    H 4933  2125                       3.2308601    0.00000   100%  19.0    9s
    H 4992  2129                       3.2306395    0.00000   100%  19.0    9s
      5786  2511 infeasible   73         3.23064    0.00000   100%  19.4   10s
    H 6204  2631                       3.2305557    0.00000   100%  19.6   10s
    H 7255  2957                       3.2302951    0.00000   100%  19.8   11s
    H 7255  2957                       3.2298874    0.00000   100%  19.8   11s
    H 7255  2957                       3.2297138    0.00000   100%  19.8   11s
    H 7255  2957                       3.2296964    0.00000   100%  19.8   11s
    H 7416  2991                       3.2296959    0.00000   100%  19.9   11s
    H 7468  3010                       3.2296679    0.00000   100%  19.9   11s
    H 8259  3269                       3.2296675    0.00000   100%  20.3   12s
    H 8469  3333                       3.2296583    0.00000   100%  20.4   12s
    H 8469  3333                       3.2296562    0.00000   100%  20.4   12s
    H10260  4155                       3.2296562    0.00000   100%  20.4   14s
     10317  4171    1.93398   36  232    3.22966    0.00000   100%  20.5   15s
    H10640  3702                       2.8454182    0.00000   100%  20.4   15s
    H10898  3778                       2.8454182    0.00000   100%  20.6   15s
    H11054  3842                       2.8454182    0.00000   100%  20.7   15s
    H11106  3863                       2.8454182    0.00000   100%  20.7   15s
    H12033  3812                       2.6579885    0.00000   100%  20.9   16s
     14376  4353    1.56329   28  249    2.65799    0.12616  95.3%  21.6   20s
     18893  5020     cutoff   32         2.65799    0.48077  81.9%  21.8   25s
    H22354  5429                       2.5593556    0.57597  77.5%  21.9   29s
     23156  5558     cutoff   33         2.55936    0.59106  76.9%  21.9   30s
     26936  5872    1.77376   31  248    2.55936    0.74358  70.9%  22.1   35s
     31170  6262    1.24623   39  241    2.55936    0.87439  65.8%  22.2   40s
    H34715  6435                       2.5593550    1.00286  60.8%  22.1   44s
     34908  6435    1.15852   36  230    2.55936    1.00722  60.6%  22.1   45s
     38270  6225    1.75204   30  235    2.55936    1.14045  55.4%  22.3   50s
     42001  6088    1.22828   41  214    2.55936    1.22535  52.1%  22.5   55s
    H44290  5655                       2.5281676    1.33776  47.1%  22.7   58s
     45576  5752    2.29397   36  249    2.52817    1.40357  44.5%  22.5   60s
     48921  5259     cutoff   28         2.52817    1.53007  39.5%  22.7   65s
     52217  5334    1.71130   18  255    2.52817    1.64724  34.8%  22.6   70s
    H52580  5263                       2.5070113    1.65820  33.9%  22.5   70s
    *55338  6286             224       2.5070043    1.70200  32.1%  22.0   74s
     55977  6419    2.21145   29  245    2.50700    1.70878  31.8%  21.9   75s
     59731  8102    2.35095   77  207    2.50700    1.73064  31.0%  21.2   80s
     63647  9634     cutoff   80         2.50700    1.75879  29.8%  20.5   85s
     67677 11734    2.16745   54  184    2.50700    1.77690  29.1%  19.9   90s
     71613 13512    2.09045   54  185    2.50700    1.79215  28.5%  19.3   95s
     75653 15588    2.47106  138  175    2.50700    1.80542  28.0%  18.7  100s
     79495 17289     cutoff   56         2.50700    1.81726  27.5%  18.3  105s
     83413 19000     cutoff   62         2.50700    1.82932  27.0%  17.9  110s
     87337 20836    1.83821   53  204    2.50700    1.83821  26.7%  17.5  115s
     91308 22630    1.90549   46  203    2.50700    1.85385  26.1%  17.2  120s
     95022 24044    1.96374   50  198    2.50700    1.86292  25.7%  16.9  125s
     99170 25879     cutoff   62         2.50700    1.87263  25.3%  16.6  130s
     103387 27782    2.02219   58  207    2.50700    1.88198  24.9%  16.3  135s
     107466 29347    2.41912   39  188    2.50700    1.88958  24.6%  16.1  140s
     111253 30766    2.22737   74  228    2.50700    1.89652  24.4%  15.9  145s
     115383 32534    2.48262   57  180    2.50700    1.90191  24.1%  15.7  150s
     119771 34774    2.31675   57  184    2.50700    1.90709  23.9%  15.4  155s
     123493 36088    2.15669   65  198    2.50700    1.91235  23.7%  15.3  160s
     127428 37502    2.40412   57  187    2.50700    1.91939  23.4%  15.1  165s
     131410 38832    2.48963  101  220    2.50700    1.92650  23.2%  15.0  170s
     135584 40480 infeasible   78         2.50700    1.93196  22.9%  14.8  175s
     139593 41806    2.44100   85  200    2.50700    1.93739  22.7%  14.7  180s
     143266 43125    2.46147   81  200    2.50700    1.94271  22.5%  14.6  185s
     147516 45043    2.41267   65  190    2.50700    1.94765  22.3%  14.4  190s
     151610 46408    2.44989   71  204    2.50700    1.95389  22.1%  14.3  195s
     155762 47998     cutoff   64         2.50700    1.96014  21.8%  14.2  200s
     160007 49743    2.43775   68  190    2.50700    1.96411  21.7%  14.1  205s
     164127 51091    2.32779   62  184    2.50700    1.96932  21.4%  14.0  210s
     168262 52607     cutoff   75         2.50700    1.97321  21.3%  13.9  215s
     172156 54128    2.48049   62  180    2.50700    1.97675  21.2%  13.8  220s
     176348 55768    2.36696   56  220    2.50700    1.98069  21.0%  13.7  225s
     180519 57361    2.39063   55  189    2.50700    1.98483  20.8%  13.6  230s
     184438 58892 infeasible   78         2.50700    1.98805  20.7%  13.5  235s
     188618 60478    2.27325   71  191    2.50700    1.99171  20.6%  13.5  240s
     192880 62242    2.42481   78  195    2.50700    1.99471  20.4%  13.4  245s
     196847 63825     cutoff   47         2.50700    1.99740  20.3%  13.3  250s
     200994 65308    2.33126   66  208    2.50700    2.00074  20.2%  13.2  255s
     205175 66897    2.49242   56  181    2.50700    2.00334  20.1%  13.2  260s
     209377 68645     cutoff   61         2.50700    2.00623  20.0%  13.1  265s
     213201 70215    2.48701   96  180    2.50700    2.00883  19.9%  13.0  270s
     217491 71977    2.08863   56  205    2.50700    2.01146  19.8%  13.0  275s
     221827 73799    2.50006  130  179    2.50700    2.01369  19.7%  12.9  280s
     226112 75412    2.22992   81  219    2.50700    2.01619  19.6%  12.8  285s
     230348 77130    2.45004   82  200    2.50700    2.01836  19.5%  12.8  290s
     234317 78771    2.40581   77  189    2.50700    2.02124  19.4%  12.7  295s
    
    Cutting planes:
      Gomory: 5
      Implied bound: 12
      MIR: 7
      Flow cover: 30
      Inf proof: 1
      RLT: 11
    
    Explored 238492 nodes (3020346 simplex iterations) in 300.00 seconds (200.28 work units)
    Thread count was 1 (of 96 available processors)
    
    Solution count 10: 2.507 2.507 2.50701 ... 3.22966
    
    Time limit reached
    Warning: max constraint violation (2.5070e-06) exceeds tolerance
    Warning: max general constraint violation (2.5070e-06) exceeds tolerance
    Best objective 2.507004245916e+00, best bound 2.023790584392e+00, gap 19.2745%
    
    User-callback calls 238639, time in user-callback 0.01 sec

--- Reading solution for model GAMS_MODEL
***
*** Solver did not provide marginals for model GAMS_MODEL
***
--- Executing after solve: elapsed 0:05:00.111
--- model.gms(320) 3 Mb
--- model.gms(521) 5 Mb
--- Putfile results /local/scratch/a/sgusev/repos/k_means/data/gams_gurobi_gdp.binary_multiplication/no_mode/2026-02-19_01-20-33/original/results.dat
--- Putfile statresults /local/scratch/a/sgusev/repos/k_means/data/gams_gurobi_gdp.binary_multiplication/no_mode/2026-02-19_01-20-33/original/resultsstat.dat
*** Status: Normal completion
--- Job model.gms Stop 02/19/26 01:25:34 elapsed 0:05:00.112
Original problem solved. Time taken: 300.59373211860657 seconds
Original objective value: 2.507004245916323
